50, 3357
36, 72
37, 104
74, 208
259, 728
333, 936
36, 72
18, 36
30, 60
48, 96
148, 416
259, 728
259, 728
111, 312
6, 12
36, 72
30, 60
18, 36
259, 728
30, 60
370, 1040
222, 624
12, 24
37, 104
54, 108
42, 84
42, 84
24, 48
12, 24
48, 96
185, 520
12, 24
333, 936
370, 1040
42, 84
185, 520
333, 936
148, 416
259, 728
12, 24
36, 72
111, 312
370, 1040
370, 1040
30, 60
222, 624
222, 624
24, 48
36, 72
222, 624
370, 1040
